logs/2026_03_24_13_36_38_set_vm-3-t1_vm-3-t1_s000_g003_max.log
[2026-03-24T13:36:38.860Z] Pipeline "set_vm-3-t1_vm-3-t1_s000_g003" → 2026_03_24_13_36_38_set_vm-3-t1_vm-3-t1_s000_g003_max.sol
Set parameter Username
Set parameter LicenseID to value 2796068
Set parameter LogFile to value "gurobi.log"
Using license file /opt/gurobi/gurobi.lic
Academic license - for non-commercial use only - expires 2027-03-23

Gurobi Optimizer version 13.0.1 build v13.0.1rc0 (linux64 - "Ubuntu 24.04.4 LTS")
Copyright (c) 2026, Gurobi Optimization, LLC

Warning: Duplicate section found (read 'binary') - Is a variable name equal to an LP file format keyword?
Warning: Duplicate section found (read 'binary') - Is a variable name equal to an LP file format keyword?
Warning: Duplicate section found (read 'binary') - Is a variable name equal to an LP file format keyword?
Warning: Duplicate section found (read 'binary') - Is a variable name equal to an LP file format keyword?
Warning: Duplicate section found (read 'binary') - Is a variable name equal to an LP file format keyword?
Warning: Duplicate section found (read 'binary') - Is a variable name equal to an LP file format keyword?
Warning: Duplicate section found (read 'binary') - Is a variable name equal to an LP file format keyword?
Warning: Duplicate section found (read 'binary') - Is a variable name equal to an LP file format keyword?
Warning: Duplicate section found (read 'binary') - Is a variable name equal to an LP file format keyword?
Warning: Duplicate section found (read 'binary') - Is a variable name equal to an LP file format keyword?
Warning: Further warnings of this type will be omitted.
Read LP format model from file /root/bgw/data/uploads/2026_03_24_13_36_38_set_vm-3-t1_vm-3-t1_s000_g003_max.lp
Reading time = 0.00 seconds
: 873 rows, 174 columns, 2419 nonzeros

Using Gurobi shared library /opt/gurobi1301/linux64/lib/libgurobi.so.13.0.1

CPU model: AMD EPYC-Genoa Processor, instruction set [SSE2|AVX|AVX2|AVX512]
Thread count: 16 physical cores, 16 logical processors, using up to 16 threads

Optimize a model with 873 rows, 174 columns and 2419 nonzeros (Max)
Model fingerprint: 0xe8b40620
Model has 79 linear objective coefficients
Variable types: 89 continuous, 85 integer (85 binary)
Coefficient statistics:
  Matrix range     [1e+00, 1e+01]
  Objective range  [1e+00, 1e+00]
  Bounds range     [1e+00, 1e+00]
  RHS range        [1e+00, 1e+01]

Found heuristic solution: objective 79.0000000
Presolve removed 577 rows and 97 columns
Presolve time: 0.00s
Presolved: 296 rows, 77 columns, 944 nonzeros
Variable types: 0 continuous, 77 integer (69 binary)
Found heuristic solution: objective 159.0000000

Root relaxation: objective 5.110000e+02, 74 iterations, 0.00 seconds (0.00 work units)

    Nodes    |    Current Node    |     Objective Bounds      |     Work
 Expl Unexpl |  Obj  Depth IntInf | Incumbent    BestBd   Gap | It/Node Time

     0     0  511.00000    0   37  159.00000  511.00000   221%     -    0s
H    0     0                     163.0000000  511.00000   213%     -    0s
H    0     0                     167.0000000  511.00000   206%     -    0s
H    0     0                     182.0000000  511.00000   181%     -    0s
H    0     0                     189.0000000  511.00000   170%     -    0s
H    0     0                     208.0000000  511.00000   146%     -    0s
     0     0  511.00000    0   36  208.00000  511.00000   146%     -    0s
     0     0  511.00000    0   36  208.00000  511.00000   146%     -    0s
     0     0  511.00000    0   35  208.00000  511.00000   146%     -    0s
     0     0  511.00000    0   27  208.00000  511.00000   146%     -    0s
     0     0  511.00000    0   28  208.00000  511.00000   146%     -    0s
     0     0  511.00000    0   27  208.00000  511.00000   146%     -    0s
     0     0  511.00000    0   27  208.00000  511.00000   146%     -    0s
H    0     0                     212.0000000  511.00000   141%     -    0s
     0     0  507.25000    0   36  212.00000  507.25000   139%     -    0s
     0     0  507.25000    0   27  212.00000  507.25000   139%     -    0s
     0     0  505.62500    0   35  212.00000  505.62500   139%     -    0s
     0     0  504.00000    0   35  212.00000  504.00000   138%     -    0s
     0     0  504.00000    0   32  212.00000  504.00000   138%     -    0s
     0     0  488.00000    0   35  212.00000  488.00000   130%     -    0s
     0     0  488.00000    0   33  212.00000  488.00000   130%     -    0s
     0     0  488.00000    0   35  212.00000  488.00000   130%     -    0s
     0     0  488.00000    0   27  212.00000  488.00000   130%     -    0s
     0     0  488.00000    0   27  212.00000  488.00000   130%     -    0s
     0     0  488.00000    0   27  212.00000  488.00000   130%     -    0s
     0     2  488.00000    0   27  212.00000  488.00000   130%     -    0s
H   28    33                     220.0000000  488.00000   122%  21.7    0s

Cutting planes:
  Inf proof: 1

Explored 42751 nodes (339581 simplex iterations) in 1.04 seconds (1.16 work units)
Thread count was 16 (of 16 available processors)

Solution count 9: 220 212 208 ... 79

Optimal solution found (tolerance 1.00e-04)
Best objective 2.200000000000e+02, best bound 2.200000000000e+02, gap 0.0000%

Wrote result file '/root/bgw/data/results/2026_03_24_13_36_38_set_vm-3-t1_vm-3-t1_s000_g003_max.sol'

